936112
192,194,118,9,197,113,85,69,190,200,7,29,63,219,164,173,10,142,138,220,51,131,114,1,81,102,186,11,145,223,128,152,185,170,149,89,169,141,108,227,87,91,174,53,55,17,52,99,215,104,201,98,189,65,23,105,218,140,127,40,221,76,120,179,157,148,79,147,217,208,41,97,177,70,139,134,82,73,156,66,48,117,158,151,44,211,229,103,32,216,20,3,37,202,5,67,8,116,209,6,62,31,71,0,161,132,154,111,228,35,182,19,115,106,195,178,88,25,143,59,184,188,15,162,126,146,38,206,42,30,198,22,68,225,50,159,112,72,180,187,123,130,172,135,205,125,121,176,207,2,137,14,136,144,90,95,165,183,191,36,107,93,34,86,61,54,129,80,39,26,168,101,33,204,160,100,222,16,110,213,196,75,56,83,84,24,181,60,122,166,78,94,58,92,171,203,167,212,57,45,124,226,18,133,12,43,21,150,49,27,77,214,74,210,155,4,175,46,224,47,193,96,119,109,13,163,153,64,199,28,192